(set-logic ALL)
(declare-const BAV1 Bool)
(declare-const BAV2 Bool)
(declare-const BAV3 Bool)
(declare-const BAV4 Bool)
(declare-const GEN6 Int)
(declare-const GEN5 Int)
(declare-const GEN4 (_ BitVec 52))
(declare-const GEN3 (_ BitVec 11))
(declare-const GEN2 (_ BitVec 1))
(declare-const GEN1 (_ BitVec 32))
(define-sort FPN () (_ FloatingPoint 11 53))
(declare-fun x () (_ BitVec 32))
(declare-fun r () FPN)
(declare-fun q () FPN)
(assert (= x GEN1))
(assert (= r (fp GEN2 GEN3 GEN4)))
(assert (= q ((_ to_fp_unsigned 11 53) RTZ x)))
(assert (= (fp.min q r) (fp.min r q)))
(assert (= BAV1 (= x GEN1)))
(assert (= BAV2 (= r (fp GEN2 GEN3 GEN4))))
(assert (= BAV3 (= q ((_ to_fp_unsigned 11 53) RTZ x))))
(assert (= BAV4 (= (fp.min q r) (fp.min r q))))
(check-sat)
(get-model)
(check-sat-using smt)
(get-model)